NAME : sw24978
COMMENT : 100 locations in Sweden
COMMENT : Derived from National Imagery and Mapping Agency data
TYPE : TSP
DIMENSION : 13
EDGE_WEIGHT_TYPE : EUC_2D
NODE_COORD_SECTION
1 55333.3333 13316.6667
2 55333.3333 13383.3333
3 55350.0000 13233.3333
4 55350.0000 13300.0000
5 55350.0000 13350.0000
6 55350.0000 13366.6667
7 55350.0000 13416.6667
8 55366.6667 13166.6667
9 55366.6667 13300.0000
10 55366.6667 13333.3333
11 55366.6667 13350.0000
12 55366.6667 13466.6667
13 55375.0000 13083.3333
